c Random generated cnf formula, satisfiable: true
p cnf 10 50
-10 9 -7 0
2 -4 6 0
-8 10 3 0
-10 9 4 0
7 5 4 0
-8 1 4 0
4 -9 8 0
2 8 -10 0
10 4 5 0
10 -9 8 0
3 2 -4 0
8 -9 4 0
-4 8 -5 0
7 4 9 0
-2 7 1 0
10 -7 6 0
9 -2 -7 0
3 -6 -8 0
2 -3 -7 0
4 -10 5 0
8 7 -4 0
6 -1 -7 0
-8 5 6 0
-2 9 -8 0
6 -5 3 0
-9 -7 -3 0
-6 -10 -9 0
3 8 -4 0
10 7 -1 0
-3 -5 -4 0
-5 -9 -6 0
5 -8 9 0
-7 -2 -5 0
-9 -7 3 0
1 9 3 0
-4 3 -9 0
10 8 -7 0
-6 1 2 0
-4 8 -6 0
5 -2 -1 0
7 1 -5 0
5 -7 6 0
7 -6 9 0
-6 8 7 0
-6 -3 8 0
-3 -1 5 0
-4 1 -9 0
-7 -6 2 0
-1 2 -8 0
4 -6 9 0
